c Qdimacs file from skolem function generator
p cnf 820 2405
c a 437 439 441 443 445 447 449 451 453 455 457 459 461 463 465 467 469 471 473 475 477 479 481 483 485 487 489 491 493 495 497 499 501 503 505 507 509 511 513 515 517 519 521 523 525 527 529 531 533 535 537 539 541 543 545 547 549 551 553 555 557 559 561 563 565 567 569 571 573 575 577 579 581 583 585 587 589 591 593 595 597 599 601 603 605 607 609 611 613 615 617 619 621 623 625 627 629 631 633 635 637 639 641 643 645 647 649 651 653 655 657 659 661 663 665 667 669 671 673 675 677 679 681 683 685 687 689 691 692 693 694 695 696 697 698 699 700 701 702 703 704 705 706 707 708 709 710 711 712 713 714 715 716 717 718 719 720 721 722 723 724 725 726 727 728 729 730 731 732 733 734 735 736 737 738 739 740 741 742 743 744 745 746 747 748 749 750 751 752 753 754 755 756 757 758 759 760 761 762 763 764 765 766 767 768 769 770 771 772 773 774 775 776 777 778 779 780 781 782 783 784 785 786 787 788 789 790 791 792 793 794 795 796 797 798 799 800 801 802 803 804 805 806 807 808 809 810 811 812 813 814 815 816 817 818 819 0
c e 436 438 440 442 444 446 448 450 452 454 456 458 460 462 464 466 468 470 472 474 476 478 480 482 484 486 488 490 492 494 496 498 500 502 504 506 508 510 512 514 516 518 520 522 524 526 528 530 532 534 536 538 540 542 544 546 548 550 552 554 556 558 560 562 564 566 568 570 572 574 576 578 580 582 584 586 588 590 592 594 596 598 600 602 604 606 608 610 612 614 616 618 620 622 624 626 628 630 632 634 636 638 640 642 644 646 648 650 652 654 656 658 660 662 664 666 668 670 672 674 676 678 680 682 684 686 688 690 1 2 3 4 5 6 7 8 9 10 11 12 13 14 15 16 17 18 19 20 21 22 23 24 25 26 27 28 29 30 31 32 33 34 35 36 37 38 39 40 41 42 43 44 45 46 47 48 49 50 51 52 53 54 55 56 57 58 59 60 61 62 63 64 65 66 67 68 69 70 71 72 73 74 75 76 77 78 79 80 81 82 83 84 85 86 87 88 89 90 91 92 93 94 95 96 97 98 99 100 101 102 103 104 105 106 107 108 109 110 111 112 113 114 115 116 117 118 119 120 121 122 123 124 125 126 127 128 129 130 131 132 133 134 135 136 137 138 139 140 141 142 143 144 145 146 147 148 149 150 151 152 153 154 155 156 157 158 159 160 161 162 163 164 165 166 167 168 169 170 171 172 173 174 175 176 177 178 179 180 181 182 183 184 185 186 187 188 189 190 191 192 193 194 195 196 197 198 199 200 201 202 203 204 205 206 207 208 209 210 211 212 213 214 215 216 217 218 219 220 221 222 223 224 225 226 227 228 229 230 231 232 233 234 235 236 237 238 239 240 241 242 243 244 245 246 247 248 249 250 251 252 253 254 255 256 257 258 259 260 261 262 263 264 265 266 267 268 269 270 271 272 273 274 275 276 277 278 279 280 281 282 283 284 285 286 287 288 289 290 291 292 293 294 295 296 297 298 299 300 301 302 303 304 305 306 307 308 309 310 311 312 313 314 315 316 317 318 319 320 321 322 323 324 325 326 327 328 329 330 331 332 333 334 335 336 337 338 339 340 341 342 343 344 345 346 347 348 349 350 351 352 353 354 355 356 357 358 359 360 361 362 363 364 365 366 367 368 369 370 371 372 373 374 375 376 377 378 379 380 381 382 383 384 385 386 387 388 389 390 391 392 393 394 395 396 397 398 399 400 401 402 403 404 405 406 407 408 409 410 411 412 413 414 415 416 417 418 419 420 421 422 423 424 425 426 427 428 429 430 431 432 433 434 435 820 0
4 5 175 345 346 0
-4 -346 0
-4 -345 0
-4 -5 0
-4 -175 0
5 6 -7 0
5 438 -693 6 0
-5 -6 0
-5 -438 7 0
-5 693 7 0
6 -436 692 0
-6 436 0
-6 -692 0
7 173 -174 0
7 8 -172 -174 0
-7 174 0
-7 -8 -173 0
-7 172 -173 0
8 170 -171 0
8 9 -169 -171 0
-8 171 0
-8 -9 -170 0
-8 169 -170 0
9 167 -168 0
9 10 -166 -168 0
-9 168 0
-9 -10 -167 0
-9 166 -167 0
10 164 -165 0
10 11 -163 -165 0
-10 165 0
-10 -11 -164 0
-10 163 -164 0
11 161 -162 0
11 12 -160 -162 0
-11 162 0
-11 -12 -161 0
-11 160 -161 0
12 158 -159 0
12 13 -157 -159 0
-12 159 0
-12 -13 -158 0
-12 157 -158 0
13 155 -156 0
13 14 -154 -156 0
-13 156 0
-13 -14 -155 0
-13 154 -155 0
14 152 -153 0
14 15 -151 -153 0
-14 153 0
-14 -15 -152 0
-14 151 -152 0
15 149 -150 0
15 16 -148 -150 0
-15 150 0
-15 -16 -149 0
-15 148 -149 0
16 146 -147 0
16 17 -145 -147 0
-16 147 0
-16 -17 -146 0
-16 145 -146 0
17 143 -144 0
17 18 -142 -144 0
-17 144 0
-17 -18 -143 0
-17 142 -143 0
18 140 -141 0
18 19 -139 -141 0
-18 141 0
-18 -19 -140 0
-18 139 -140 0
19 137 -138 0
19 20 -136 -138 0
-19 138 0
-19 -20 -137 0
-19 136 -137 0
20 134 -135 0
20 21 -133 -135 0
-20 135 0
-20 -21 -134 0
-20 133 -134 0
21 131 -132 0
21 22 -130 -132 0
-21 132 0
-21 -22 -131 0
-21 130 -131 0
22 128 -129 0
22 23 -127 -129 0
-22 129 0
-22 -23 -128 0
-22 127 -128 0
23 125 -126 0
23 24 -124 -126 0
-23 126 0
-23 -24 -125 0
-23 124 -125 0
24 122 -123 0
24 25 -121 -123 0
-24 123 0
-24 -25 -122 0
-24 121 -122 0
25 119 -120 0
25 26 -118 -120 0
-25 120 0
-25 -26 -119 0
-25 118 -119 0
26 116 -117 0
26 27 -115 -117 0
-26 117 0
-26 -27 -116 0
-26 115 -116 0
27 113 -114 0
27 28 -112 -114 0
-27 114 0
-27 -28 -113 0
-27 112 -113 0
28 110 -111 0
28 29 -109 -111 0
-28 111 0
-28 -29 -110 0
-28 109 -110 0
29 107 -108 0
29 30 -106 -108 0
-29 108 0
-29 -30 -107 0
-29 106 -107 0
30 104 -105 0
30 31 -103 -105 0
-30 105 0
-30 -31 -104 0
-30 103 -104 0
31 101 -102 0
31 32 -100 -102 0
-31 102 0
-31 -32 -101 0
-31 100 -101 0
32 98 -99 0
32 33 -97 -99 0
-32 99 0
-32 -33 -98 0
-32 97 -98 0
33 95 -96 0
33 34 -94 -96 0
-33 96 0
-33 -34 -95 0
-33 94 -95 0
34 92 -93 0
34 35 -91 -93 0
-34 93 0
-34 -35 -92 0
-34 91 -92 0
35 89 -90 0
35 36 -88 -90 0
-35 90 0
-35 -36 -89 0
-35 88 -89 0
36 86 -87 0
36 37 -85 -87 0
-36 87 0
-36 -37 -86 0
-36 85 -86 0
37 83 -84 0
37 38 -82 -84 0
-37 84 0
-37 -38 -83 0
-37 82 -83 0
38 80 -81 0
38 39 -79 -81 0
-38 81 0
-38 -39 -80 0
-38 79 -80 0
39 77 -78 0
39 40 -76 -78 0
-39 78 0
-39 -40 -77 0
-39 76 -77 0
40 74 -75 0
40 41 -73 -75 0
-40 75 0
-40 -41 -74 0
-40 73 -74 0
41 71 -72 0
41 42 -70 -72 0
-41 72 0
-41 -42 -71 0
-41 70 -71 0
42 68 -69 0
42 43 -67 -69 0
-42 69 0
-42 -43 -68 0
-42 67 -68 0
43 65 -66 0
43 44 -64 -66 0
-43 66 0
-43 -44 -65 0
-43 64 -65 0
44 62 -63 0
44 45 -61 -63 0
-44 63 0
-44 -45 -62 0
-44 61 -62 0
45 59 -60 0
45 46 -58 -60 0
-45 60 0
-45 -46 -59 0
-45 58 -59 0
46 56 -57 0
46 47 -55 -57 0
-46 57 0
-46 -47 -56 0
-46 55 -56 0
47 53 -54 0
47 48 -52 -54 0
-47 54 0
-47 -48 -53 0
-47 52 -53 0
48 -49 -51 0
48 50 -51 0
-48 51 0
-48 49 -50 0
49 -690 818 0
49 -688 819 0
49 -688 -690 0
49 818 819 0
-49 690 -819 0
-49 688 -818 0
50 686 688 0
50 -817 -818 0
50 686 -818 0
50 688 -817 0
-50 -686 817 0
-50 -688 818 0
51 -686 816 0
51 -684 817 0
51 -684 -686 0
51 816 817 0
-51 686 -817 0
-51 684 -816 0
52 682 684 0
52 -815 -816 0
52 682 -816 0
52 684 -815 0
-52 -682 815 0
-52 -684 816 0
53 -682 814 0
53 -680 815 0
53 -680 -682 0
53 814 815 0
-53 682 -815 0
-53 680 -814 0
54 678 680 0
54 -813 -814 0
54 678 -814 0
54 680 -813 0
-54 -678 813 0
-54 -680 814 0
55 -678 812 0
55 -676 813 0
55 -676 -678 0
55 812 813 0
-55 678 -813 0
-55 676 -812 0
56 674 676 0
56 -811 -812 0
56 674 -812 0
56 676 -811 0
-56 -674 811 0
-56 -676 812 0
57 -674 810 0
57 -672 811 0
57 -672 -674 0
57 810 811 0
-57 674 -811 0
-57 672 -810 0
58 670 672 0
58 -809 -810 0
58 670 -810 0
58 672 -809 0
-58 -670 809 0
-58 -672 810 0
59 -670 808 0
59 -668 809 0
59 -668 -670 0
59 808 809 0
-59 670 -809 0
-59 668 -808 0
60 666 668 0
60 -807 -808 0
60 666 -808 0
60 668 -807 0
-60 -666 807 0
-60 -668 808 0
61 -666 806 0
61 -664 807 0
61 -664 -666 0
61 806 807 0
-61 666 -807 0
-61 664 -806 0
62 662 664 0
62 -805 -806 0
62 662 -806 0
62 664 -805 0
-62 -662 805 0
-62 -664 806 0
63 -662 804 0
63 -660 805 0
63 -660 -662 0
63 804 805 0
-63 662 -805 0
-63 660 -804 0
64 658 660 0
64 -803 -804 0
64 658 -804 0
64 660 -803 0
-64 -658 803 0
-64 -660 804 0
65 -658 802 0
65 -656 803 0
65 -656 -658 0
65 802 803 0
-65 658 -803 0
-65 656 -802 0
66 654 656 0
66 -801 -802 0
66 654 -802 0
66 656 -801 0
-66 -654 801 0
-66 -656 802 0
67 -654 800 0
67 -652 801 0
67 -652 -654 0
67 800 801 0
-67 654 -801 0
-67 652 -800 0
68 650 652 0
68 -799 -800 0
68 650 -800 0
68 652 -799 0
-68 -650 799 0
-68 -652 800 0
69 -650 798 0
69 -648 799 0
69 -648 -650 0
69 798 799 0
-69 650 -799 0
-69 648 -798 0
70 646 648 0
70 -797 -798 0
70 646 -798 0
70 648 -797 0
-70 -646 797 0
-70 -648 798 0
71 -646 796 0
71 -644 797 0
71 -644 -646 0
71 796 797 0
-71 646 -797 0
-71 644 -796 0
72 642 644 0
72 -795 -796 0
72 642 -796 0
72 644 -795 0
-72 -642 795 0
-72 -644 796 0
73 -642 794 0
73 -640 795 0
73 -640 -642 0
73 794 795 0
-73 642 -795 0
-73 640 -794 0
74 638 640 0
74 -793 -794 0
74 638 -794 0
74 640 -793 0
-74 -638 793 0
-74 -640 794 0
75 -638 792 0
75 -636 793 0
75 -636 -638 0
75 792 793 0
-75 638 -793 0
-75 636 -792 0
76 634 636 0
76 -791 -792 0
76 634 -792 0
76 636 -791 0
-76 -634 791 0
-76 -636 792 0
77 -634 790 0
77 -632 791 0
77 -632 -634 0
77 790 791 0
-77 634 -791 0
-77 632 -790 0
78 630 632 0
78 -789 -790 0
78 630 -790 0
78 632 -789 0
-78 -630 789 0
-78 -632 790 0
79 -630 788 0
79 -628 789 0
79 -628 -630 0
79 788 789 0
-79 630 -789 0
-79 628 -788 0
80 626 628 0
80 -787 -788 0
80 626 -788 0
80 628 -787 0
-80 -626 787 0
-80 -628 788 0
81 -626 786 0
81 -624 787 0
81 -624 -626 0
81 786 787 0
-81 626 -787 0
-81 624 -786 0
82 622 624 0
82 -785 -786 0
82 622 -786 0
82 624 -785 0
-82 -622 785 0
-82 -624 786 0
83 -622 784 0
83 -620 785 0
83 -620 -622 0
83 784 785 0
-83 622 -785 0
-83 620 -784 0
84 618 620 0
84 -783 -784 0
84 618 -784 0
84 620 -783 0
-84 -618 783 0
-84 -620 784 0
85 -618 782 0
85 -616 783 0
85 -616 -618 0
85 782 783 0
-85 618 -783 0
-85 616 -782 0
86 614 616 0
86 -781 -782 0
86 614 -782 0
86 616 -781 0
-86 -614 781 0
-86 -616 782 0
87 -614 780 0
87 -612 781 0
87 -612 -614 0
87 780 781 0
-87 614 -781 0
-87 612 -780 0
88 610 612 0
88 -779 -780 0
88 610 -780 0
88 612 -779 0
-88 -610 779 0
-88 -612 780 0
89 -610 778 0
89 -608 779 0
89 -608 -610 0
89 778 779 0
-89 610 -779 0
-89 608 -778 0
90 606 608 0
90 -777 -778 0
90 606 -778 0
90 608 -777 0
-90 -606 777 0
-90 -608 778 0
91 -606 776 0
91 -604 777 0
91 -604 -606 0
91 776 777 0
-91 606 -777 0
-91 604 -776 0
92 602 604 0
92 -775 -776 0
92 602 -776 0
92 604 -775 0
-92 -602 775 0
-92 -604 776 0
93 -602 774 0
93 -600 775 0
93 -600 -602 0
93 774 775 0
-93 602 -775 0
-93 600 -774 0
94 598 600 0
94 -773 -774 0
94 598 -774 0
94 600 -773 0
-94 -598 773 0
-94 -600 774 0
95 -598 772 0
95 -596 773 0
95 -596 -598 0
95 772 773 0
-95 598 -773 0
-95 596 -772 0
96 594 596 0
96 -771 -772 0
96 594 -772 0
96 596 -771 0
-96 -594 771 0
-96 -596 772 0
97 -594 770 0
97 -592 771 0
97 -592 -594 0
97 770 771 0
-97 594 -771 0
-97 592 -770 0
98 590 592 0
98 -769 -770 0
98 590 -770 0
98 592 -769 0
-98 -590 769 0
-98 -592 770 0
99 -590 768 0
99 -588 769 0
99 -588 -590 0
99 768 769 0
-99 590 -769 0
-99 588 -768 0
100 586 588 0
100 -767 -768 0
100 586 -768 0
100 588 -767 0
-100 -586 767 0
-100 -588 768 0
101 -586 766 0
101 -584 767 0
101 -584 -586 0
101 766 767 0
-101 586 -767 0
-101 584 -766 0
102 582 584 0
102 -765 -766 0
102 582 -766 0
102 584 -765 0
-102 -582 765 0
-102 -584 766 0
103 -582 764 0
103 -580 765 0
103 -580 -582 0
103 764 765 0
-103 582 -765 0
-103 580 -764 0
104 578 580 0
104 -763 -764 0
104 578 -764 0
104 580 -763 0
-104 -578 763 0
-104 -580 764 0
105 -578 762 0
105 -576 763 0
105 -576 -578 0
105 762 763 0
-105 578 -763 0
-105 576 -762 0
106 574 576 0
106 -761 -762 0
106 574 -762 0
106 576 -761 0
-106 -574 761 0
-106 -576 762 0
107 -574 760 0
107 -572 761 0
107 -572 -574 0
107 760 761 0
-107 574 -761 0
-107 572 -760 0
108 570 572 0
108 -759 -760 0
108 570 -760 0
108 572 -759 0
-108 -570 759 0
-108 -572 760 0
109 -570 758 0
109 -568 759 0
109 -568 -570 0
109 758 759 0
-109 570 -759 0
-109 568 -758 0
110 566 568 0
110 -757 -758 0
110 566 -758 0
110 568 -757 0
-110 -566 757 0
-110 -568 758 0
111 -566 756 0
111 -564 757 0
111 -564 -566 0
111 756 757 0
-111 566 -757 0
-111 564 -756 0
112 562 564 0
112 -755 -756 0
112 562 -756 0
112 564 -755 0
-112 -562 755 0
-112 -564 756 0
113 -562 754 0
113 -560 755 0
113 -560 -562 0
113 754 755 0
-113 562 -755 0
-113 560 -754 0
114 558 560 0
114 -753 -754 0
114 558 -754 0
114 560 -753 0
-114 -558 753 0
-114 -560 754 0
115 -558 752 0
115 -556 753 0
115 -556 -558 0
115 752 753 0
-115 558 -753 0
-115 556 -752 0
116 554 556 0
116 -751 -752 0
116 554 -752 0
116 556 -751 0
-116 -554 751 0
-116 -556 752 0
117 -554 750 0
117 -552 751 0
117 -552 -554 0
117 750 751 0
-117 554 -751 0
-117 552 -750 0
118 550 552 0
118 -749 -750 0
118 550 -750 0
118 552 -749 0
-118 -550 749 0
-118 -552 750 0
119 -550 748 0
119 -548 749 0
119 -548 -550 0
119 748 749 0
-119 550 -749 0
-119 548 -748 0
120 546 548 0
120 -747 -748 0
120 546 -748 0
120 548 -747 0
-120 -546 747 0
-120 -548 748 0
121 -546 746 0
121 -544 747 0
121 -544 -546 0
121 746 747 0
-121 546 -747 0
-121 544 -746 0
122 542 544 0
122 -745 -746 0
122 542 -746 0
122 544 -745 0
-122 -542 745 0
-122 -544 746 0
123 -542 744 0
123 -540 745 0
123 -540 -542 0
123 744 745 0
-123 542 -745 0
-123 540 -744 0
124 538 540 0
124 -743 -744 0
124 538 -744 0
124 540 -743 0
-124 -538 743 0
-124 -540 744 0
125 -538 742 0
125 -536 743 0
125 -536 -538 0
125 742 743 0
-125 538 -743 0
-125 536 -742 0
126 534 536 0
126 -741 -742 0
126 534 -742 0
126 536 -741 0
-126 -534 741 0
-126 -536 742 0
127 -534 740 0
127 -532 741 0
127 -532 -534 0
127 740 741 0
-127 534 -741 0
-127 532 -740 0
128 530 532 0
128 -739 -740 0
128 530 -740 0
128 532 -739 0
-128 -530 739 0
-128 -532 740 0
129 -530 738 0
129 -528 739 0
129 -528 -530 0
129 738 739 0
-129 530 -739 0
-129 528 -738 0
130 526 528 0
130 -737 -738 0
130 526 -738 0
130 528 -737 0
-130 -526 737 0
-130 -528 738 0
131 -526 736 0
131 -524 737 0
131 -524 -526 0
131 736 737 0
-131 526 -737 0
-131 524 -736 0
132 522 524 0
132 -735 -736 0
132 522 -736 0
132 524 -735 0
-132 -522 735 0
-132 -524 736 0
133 -522 734 0
133 -520 735 0
133 -520 -522 0
133 734 735 0
-133 522 -735 0
-133 520 -734 0
134 518 520 0
134 -733 -734 0
134 518 -734 0
134 520 -733 0
-134 -518 733 0
-134 -520 734 0
135 -518 732 0
135 -516 733 0
135 -516 -518 0
135 732 733 0
-135 518 -733 0
-135 516 -732 0
136 514 516 0
136 -731 -732 0
136 514 -732 0
136 516 -731 0
-136 -514 731 0
-136 -516 732 0
137 -514 730 0
137 -512 731 0
137 -512 -514 0
137 730 731 0
-137 514 -731 0
-137 512 -730 0
138 510 512 0
138 -729 -730 0
138 510 -730 0
138 512 -729 0
-138 -510 729 0
-138 -512 730 0
139 -510 728 0
139 -508 729 0
139 -508 -510 0
139 728 729 0
-139 510 -729 0
-139 508 -728 0
140 506 508 0
140 -727 -728 0
140 506 -728 0
140 508 -727 0
-140 -506 727 0
-140 -508 728 0
141 -506 726 0
141 -504 727 0
141 -504 -506 0
141 726 727 0
-141 506 -727 0
-141 504 -726 0
142 502 504 0
142 -725 -726 0
142 502 -726 0
142 504 -725 0
-142 -502 725 0
-142 -504 726 0
143 -502 724 0
143 -500 725 0
143 -500 -502 0
143 724 725 0
-143 502 -725 0
-143 500 -724 0
144 498 500 0
144 -723 -724 0
144 498 -724 0
144 500 -723 0
-144 -498 723 0
-144 -500 724 0
145 -498 722 0
145 -496 723 0
145 -496 -498 0
145 722 723 0
-145 498 -723 0
-145 496 -722 0
146 494 496 0
146 -721 -722 0
146 494 -722 0
146 496 -721 0
-146 -494 721 0
-146 -496 722 0
147 -494 720 0
147 -492 721 0
147 -492 -494 0
147 720 721 0
-147 494 -721 0
-147 492 -720 0
148 490 492 0
148 -719 -720 0
148 490 -720 0
148 492 -719 0
-148 -490 719 0
-148 -492 720 0
149 -490 718 0
149 -488 719 0
149 -488 -490 0
149 718 719 0
-149 490 -719 0
-149 488 -718 0
150 486 488 0
150 -717 -718 0
150 486 -718 0
150 488 -717 0
-150 -486 717 0
-150 -488 718 0
151 -486 716 0
151 -484 717 0
151 -484 -486 0
151 716 717 0
-151 486 -717 0
-151 484 -716 0
152 482 484 0
152 -715 -716 0
152 482 -716 0
152 484 -715 0
-152 -482 715 0
-152 -484 716 0
153 -482 714 0
153 -480 715 0
153 -480 -482 0
153 714 715 0
-153 482 -715 0
-153 480 -714 0
154 478 480 0
154 -713 -714 0
154 478 -714 0
154 480 -713 0
-154 -478 713 0
-154 -480 714 0
155 -478 712 0
155 -476 713 0
155 -476 -478 0
155 712 713 0
-155 478 -713 0
-155 476 -712 0
156 474 476 0
156 -711 -712 0
156 474 -712 0
156 476 -711 0
-156 -474 711 0
-156 -476 712 0
157 -474 710 0
157 -472 711 0
157 -472 -474 0
157 710 711 0
-157 474 -711 0
-157 472 -710 0
158 470 472 0
158 -709 -710 0
158 470 -710 0
158 472 -709 0
-158 -470 709 0
-158 -472 710 0
159 -470 708 0
159 -468 709 0
159 -468 -470 0
159 708 709 0
-159 470 -709 0
-159 468 -708 0
160 466 468 0
160 -707 -708 0
160 466 -708 0
160 468 -707 0
-160 -466 707 0
-160 -468 708 0
161 -466 706 0
161 -464 707 0
161 -464 -466 0
161 706 707 0
-161 466 -707 0
-161 464 -706 0
162 462 464 0
162 -705 -706 0
162 462 -706 0
162 464 -705 0
-162 -462 705 0
-162 -464 706 0
163 -462 704 0
163 -460 705 0
163 -460 -462 0
163 704 705 0
-163 462 -705 0
-163 460 -704 0
164 458 460 0
164 -703 -704 0
164 458 -704 0
164 460 -703 0
-164 -458 703 0
-164 -460 704 0
165 -458 702 0
165 -456 703 0
165 -456 -458 0
165 702 703 0
-165 458 -703 0
-165 456 -702 0
166 454 456 0
166 -701 -702 0
166 454 -702 0
166 456 -701 0
-166 -454 701 0
-166 -456 702 0
167 -454 700 0
167 -452 701 0
167 -452 -454 0
167 700 701 0
-167 454 -701 0
-167 452 -700 0
168 450 452 0
168 -699 -700 0
168 450 -700 0
168 452 -699 0
-168 -450 699 0
-168 -452 700 0
169 -450 698 0
169 -448 699 0
169 -448 -450 0
169 698 699 0
-169 450 -699 0
-169 448 -698 0
170 446 448 0
170 -697 -698 0
170 446 -698 0
170 448 -697 0
-170 -446 697 0
-170 -448 698 0
171 -446 696 0
171 -444 697 0
171 -444 -446 0
171 696 697 0
-171 446 -697 0
-171 444 -696 0
172 442 444 0
172 -695 -696 0
172 442 -696 0
172 444 -695 0
-172 -442 695 0
-172 -444 696 0
173 -442 694 0
173 -440 695 0
173 -440 -442 0
173 694 695 0
-173 442 -695 0
-173 440 -694 0
174 438 440 0
174 -693 -694 0
174 438 -694 0
174 440 -693 0
-174 -438 693 0
-174 -440 694 0
175 176 -177 0
175 438 -439 176 0
-175 -176 0
-175 -438 177 0
-175 439 177 0
176 -436 437 0
-176 436 0
-176 -437 0
177 343 -344 0
177 178 -342 -344 0
-177 344 0
-177 -178 -343 0
-177 342 -343 0
178 340 -341 0
178 179 -339 -341 0
-178 341 0
-178 -179 -340 0
-178 339 -340 0
179 337 -338 0
179 180 -336 -338 0
-179 338 0
-179 -180 -337 0
-179 336 -337 0
180 334 -335 0
180 181 -333 -335 0
-180 335 0
-180 -181 -334 0
-180 333 -334 0
181 331 -332 0
181 182 -330 -332 0
-181 332 0
-181 -182 -331 0
-181 330 -331 0
182 328 -329 0
182 183 -327 -329 0
-182 329 0
-182 -183 -328 0
-182 327 -328 0
183 325 -326 0
183 184 -324 -326 0
-183 326 0
-183 -184 -325 0
-183 324 -325 0
184 322 -323 0
184 185 -321 -323 0
-184 323 0
-184 -185 -322 0
-184 321 -322 0
185 319 -320 0
185 186 -318 -320 0
-185 320 0
-185 -186 -319 0
-185 318 -319 0
186 316 -317 0
186 187 -315 -317 0
-186 317 0
-186 -187 -316 0
-186 315 -316 0
187 313 -314 0
187 188 -312 -314 0
-187 314 0
-187 -188 -313 0
-187 312 -313 0
188 310 -311 0
188 189 -309 -311 0
-188 311 0
-188 -189 -310 0
-188 309 -310 0
189 307 -308 0
189 190 -306 -308 0
-189 308 0
-189 -190 -307 0
-189 306 -307 0
190 304 -305 0
190 191 -303 -305 0
-190 305 0
-190 -191 -304 0
-190 303 -304 0
191 301 -302 0
191 192 -300 -302 0
-191 302 0
-191 -192 -301 0
-191 300 -301 0
192 298 -299 0
192 193 -297 -299 0
-192 299 0
-192 -193 -298 0
-192 297 -298 0
193 295 -296 0
193 194 -294 -296 0
-193 296 0
-193 -194 -295 0
-193 294 -295 0
194 292 -293 0
194 195 -291 -293 0
-194 293 0
-194 -195 -292 0
-194 291 -292 0
195 289 -290 0
195 196 -288 -290 0
-195 290 0
-195 -196 -289 0
-195 288 -289 0
196 286 -287 0
196 197 -285 -287 0
-196 287 0
-196 -197 -286 0
-196 285 -286 0
197 283 -284 0
197 198 -282 -284 0
-197 284 0
-197 -198 -283 0
-197 282 -283 0
198 280 -281 0
198 199 -279 -281 0
-198 281 0
-198 -199 -280 0
-198 279 -280 0
199 277 -278 0
199 200 -276 -278 0
-199 278 0
-199 -200 -277 0
-199 276 -277 0
200 274 -275 0
200 201 -273 -275 0
-200 275 0
-200 -201 -274 0
-200 273 -274 0
201 271 -272 0
201 202 -270 -272 0
-201 272 0
-201 -202 -271 0
-201 270 -271 0
202 268 -269 0
202 203 -267 -269 0
-202 269 0
-202 -203 -268 0
-202 267 -268 0
203 265 -266 0
203 204 -264 -266 0
-203 266 0
-203 -204 -265 0
-203 264 -265 0
204 262 -263 0
204 205 -261 -263 0
-204 263 0
-204 -205 -262 0
-204 261 -262 0
205 259 -260 0
205 206 -258 -260 0
-205 260 0
-205 -206 -259 0
-205 258 -259 0
206 256 -257 0
206 207 -255 -257 0
-206 257 0
-206 -207 -256 0
-206 255 -256 0
207 253 -254 0
207 208 -252 -254 0
-207 254 0
-207 -208 -253 0
-207 252 -253 0
208 250 -251 0
208 209 -249 -251 0
-208 251 0
-208 -209 -250 0
-208 249 -250 0
209 247 -248 0
209 210 -246 -248 0
-209 248 0
-209 -210 -247 0
-209 246 -247 0
210 244 -245 0
210 211 -243 -245 0
-210 245 0
-210 -211 -244 0
-210 243 -244 0
211 241 -242 0
211 212 -240 -242 0
-211 242 0
-211 -212 -241 0
-211 240 -241 0
212 238 -239 0
212 213 -237 -239 0
-212 239 0
-212 -213 -238 0
-212 237 -238 0
213 235 -236 0
213 214 -234 -236 0
-213 236 0
-213 -214 -235 0
-213 234 -235 0
214 232 -233 0
214 215 -231 -233 0
-214 233 0
-214 -215 -232 0
-214 231 -232 0
215 229 -230 0
215 216 -228 -230 0
-215 230 0
-215 -216 -229 0
-215 228 -229 0
216 226 -227 0
216 217 -225 -227 0
-216 227 0
-216 -217 -226 0
-216 225 -226 0
217 223 -224 0
217 218 -222 -224 0
-217 224 0
-217 -218 -223 0
-217 222 -223 0
218 -219 -221 0
218 220 -221 0
-218 221 0
-218 219 -220 0
219 -688 691 0
219 689 -690 0
219 689 691 0
219 -688 -690 0
-219 688 -689 0
-219 690 -691 0
220 -687 688 0
220 686 -689 0
220 686 688 0
220 -687 -689 0
-220 -686 687 0
-220 -688 689 0
221 -684 687 0
221 685 -686 0
221 685 687 0
221 -684 -686 0
-221 684 -685 0
-221 686 -687 0
222 -683 684 0
222 682 -685 0
222 682 684 0
222 -683 -685 0
-222 -682 683 0
-222 -684 685 0
223 -680 683 0
223 681 -682 0
223 681 683 0
223 -680 -682 0
-223 680 -681 0
-223 682 -683 0
224 -679 680 0
224 678 -681 0
224 678 680 0
224 -679 -681 0
-224 -678 679 0
-224 -680 681 0
225 -676 679 0
225 677 -678 0
225 677 679 0
225 -676 -678 0
-225 676 -677 0
-225 678 -679 0
226 -675 676 0
226 674 -677 0
226 674 676 0
226 -675 -677 0
-226 -674 675 0
-226 -676 677 0
227 -672 675 0
227 673 -674 0
227 673 675 0
227 -672 -674 0
-227 672 -673 0
-227 674 -675 0
228 -671 672 0
228 670 -673 0
228 670 672 0
228 -671 -673 0
-228 -670 671 0
-228 -672 673 0
229 -668 671 0
229 669 -670 0
229 669 671 0
229 -668 -670 0
-229 668 -669 0
-229 670 -671 0
230 -667 668 0
230 666 -669 0
230 666 668 0
230 -667 -669 0
-230 -666 667 0
-230 -668 669 0
231 -664 667 0
231 665 -666 0
231 665 667 0
231 -664 -666 0
-231 664 -665 0
-231 666 -667 0
232 -663 664 0
232 662 -665 0
232 662 664 0
232 -663 -665 0
-232 -662 663 0
-232 -664 665 0
233 -660 663 0
233 661 -662 0
233 661 663 0
233 -660 -662 0
-233 660 -661 0
-233 662 -663 0
234 -659 660 0
234 658 -661 0
234 658 660 0
234 -659 -661 0
-234 -658 659 0
-234 -660 661 0
235 -656 659 0
235 657 -658 0
235 657 659 0
235 -656 -658 0
-235 656 -657 0
-235 658 -659 0
236 -655 656 0
236 654 -657 0
236 654 656 0
236 -655 -657 0
-236 -654 655 0
-236 -656 657 0
237 -652 655 0
237 653 -654 0
237 653 655 0
237 -652 -654 0
-237 652 -653 0
-237 654 -655 0
238 -651 652 0
238 650 -653 0
238 650 652 0
238 -651 -653 0
-238 -650 651 0
-238 -652 653 0
239 -648 651 0
239 649 -650 0
239 649 651 0
239 -648 -650 0
-239 648 -649 0
-239 650 -651 0
240 -647 648 0
240 646 -649 0
240 646 648 0
240 -647 -649 0
-240 -646 647 0
-240 -648 649 0
241 -644 647 0
241 645 -646 0
241 645 647 0
241 -644 -646 0
-241 644 -645 0
-241 646 -647 0
242 -643 644 0
242 642 -645 0
242 642 644 0
242 -643 -645 0
-242 -642 643 0
-242 -644 645 0
243 -640 643 0
243 641 -642 0
243 641 643 0
243 -640 -642 0
-243 640 -641 0
-243 642 -643 0
244 -639 640 0
244 638 -641 0
244 638 640 0
244 -639 -641 0
-244 -638 639 0
-244 -640 641 0
245 -636 639 0
245 637 -638 0
245 637 639 0
245 -636 -638 0
-245 636 -637 0
-245 638 -639 0
246 -635 636 0
246 634 -637 0
246 634 636 0
246 -635 -637 0
-246 -634 635 0
-246 -636 637 0
247 -632 635 0
247 633 -634 0
247 633 635 0
247 -632 -634 0
-247 632 -633 0
-247 634 -635 0
248 -631 632 0
248 630 -633 0
248 630 632 0
248 -631 -633 0
-248 -630 631 0
-248 -632 633 0
249 -628 631 0
249 629 -630 0
249 629 631 0
249 -628 -630 0
-249 628 -629 0
-249 630 -631 0
250 -627 628 0
250 626 -629 0
250 626 628 0
250 -627 -629 0
-250 -626 627 0
-250 -628 629 0
251 -624 627 0
251 625 -626 0
251 625 627 0
251 -624 -626 0
-251 624 -625 0
-251 626 -627 0
252 -623 624 0
252 622 -625 0
252 622 624 0
252 -623 -625 0
-252 -622 623 0
-252 -624 625 0
253 -620 623 0
253 621 -622 0
253 621 623 0
253 -620 -622 0
-253 620 -621 0
-253 622 -623 0
254 -619 620 0
254 618 -621 0
254 618 620 0
254 -619 -621 0
-254 -618 619 0
-254 -620 621 0
255 -616 619 0
255 617 -618 0
255 617 619 0
255 -616 -618 0
-255 616 -617 0
-255 618 -619 0
256 -615 616 0
256 614 -617 0
256 614 616 0
256 -615 -617 0
-256 -614 615 0
-256 -616 617 0
257 -612 615 0
257 613 -614 0
257 613 615 0
257 -612 -614 0
-257 612 -613 0
-257 614 -615 0
258 -611 612 0
258 610 -613 0
258 610 612 0
258 -611 -613 0
-258 -610 611 0
-258 -612 613 0
259 -608 611 0
259 609 -610 0
259 609 611 0
259 -608 -610 0
-259 608 -609 0
-259 610 -611 0
260 -607 608 0
260 606 -609 0
260 606 608 0
260 -607 -609 0
-260 -606 607 0
-260 -608 609 0
261 -604 607 0
261 605 -606 0
261 605 607 0
261 -604 -606 0
-261 604 -605 0
-261 606 -607 0
262 -603 604 0
262 602 -605 0
262 602 604 0
262 -603 -605 0
-262 -602 603 0
-262 -604 605 0
263 -600 603 0
263 601 -602 0
263 601 603 0
263 -600 -602 0
-263 600 -601 0
-263 602 -603 0
264 -599 600 0
264 598 -601 0
264 598 600 0
264 -599 -601 0
-264 -598 599 0
-264 -600 601 0
265 -596 599 0
265 597 -598 0
265 597 599 0
265 -596 -598 0
-265 596 -597 0
-265 598 -599 0
266 -595 596 0
266 594 -597 0
266 594 596 0
266 -595 -597 0
-266 -594 595 0
-266 -596 597 0
267 -592 595 0
267 593 -594 0
267 593 595 0
267 -592 -594 0
-267 592 -593 0
-267 594 -595 0
268 -591 592 0
268 590 -593 0
268 590 592 0
268 -591 -593 0
-268 -590 591 0
-268 -592 593 0
269 -588 591 0
269 589 -590 0
269 589 591 0
269 -588 -590 0
-269 588 -589 0
-269 590 -591 0
270 -587 588 0
270 586 -589 0
270 586 588 0
270 -587 -589 0
-270 -586 587 0
-270 -588 589 0
271 -584 587 0
271 585 -586 0
271 585 587 0
271 -584 -586 0
-271 584 -585 0
-271 586 -587 0
272 -583 584 0
272 582 -585 0
272 582 584 0
272 -583 -585 0
-272 -582 583 0
-272 -584 585 0
273 -580 583 0
273 581 -582 0
273 581 583 0
273 -580 -582 0
-273 580 -581 0
-273 582 -583 0
274 -579 580 0
274 578 -581 0
274 578 580 0
274 -579 -581 0
-274 -578 579 0
-274 -580 581 0
275 -576 579 0
275 577 -578 0
275 577 579 0
275 -576 -578 0
-275 576 -577 0
-275 578 -579 0
276 -575 576 0
276 574 -577 0
276 574 576 0
276 -575 -577 0
-276 -574 575 0
-276 -576 577 0
277 -572 575 0
277 573 -574 0
277 573 575 0
277 -572 -574 0
-277 572 -573 0
-277 574 -575 0
278 -571 572 0
278 570 -573 0
278 570 572 0
278 -571 -573 0
-278 -570 571 0
-278 -572 573 0
279 -568 571 0
279 569 -570 0
279 569 571 0
279 -568 -570 0
-279 568 -569 0
-279 570 -571 0
280 -567 568 0
280 566 -569 0
280 566 568 0
280 -567 -569 0
-280 -566 567 0
-280 -568 569 0
281 -564 567 0
281 565 -566 0
281 565 567 0
281 -564 -566 0
-281 564 -565 0
-281 566 -567 0
282 -563 564 0
282 562 -565 0
282 562 564 0
282 -563 -565 0
-282 -562 563 0
-282 -564 565 0
283 -560 563 0
283 561 -562 0
283 561 563 0
283 -560 -562 0
-283 560 -561 0
-283 562 -563 0
284 -559 560 0
284 558 -561 0
284 558 560 0
284 -559 -561 0
-284 -558 559 0
-284 -560 561 0
285 -556 559 0
285 557 -558 0
285 557 559 0
285 -556 -558 0
-285 556 -557 0
-285 558 -559 0
286 -555 556 0
286 554 -557 0
286 554 556 0
286 -555 -557 0
-286 -554 555 0
-286 -556 557 0
287 -552 555 0
287 553 -554 0
287 553 555 0
287 -552 -554 0
-287 552 -553 0
-287 554 -555 0
288 -551 552 0
288 550 -553 0
288 550 552 0
288 -551 -553 0
-288 -550 551 0
-288 -552 553 0
289 -548 551 0
289 549 -550 0
289 549 551 0
289 -548 -550 0
-289 548 -549 0
-289 550 -551 0
290 -547 548 0
290 546 -549 0
290 546 548 0
290 -547 -549 0
-290 -546 547 0
-290 -548 549 0
291 -544 547 0
291 545 -546 0
291 545 547 0
291 -544 -546 0
-291 544 -545 0
-291 546 -547 0
292 -543 544 0
292 542 -545 0
292 542 544 0
292 -543 -545 0
-292 -542 543 0
-292 -544 545 0
293 -540 543 0
293 541 -542 0
293 541 543 0
293 -540 -542 0
-293 540 -541 0
-293 542 -543 0
294 -539 540 0
294 538 -541 0
294 538 540 0
294 -539 -541 0
-294 -538 539 0
-294 -540 541 0
295 -536 539 0
295 537 -538 0
295 537 539 0
295 -536 -538 0
-295 536 -537 0
-295 538 -539 0
296 -535 536 0
296 534 -537 0
296 534 536 0
296 -535 -537 0
-296 -534 535 0
-296 -536 537 0
297 -532 535 0
297 533 -534 0
297 533 535 0
297 -532 -534 0
-297 532 -533 0
-297 534 -535 0
298 -531 532 0
298 530 -533 0
298 530 532 0
298 -531 -533 0
-298 -530 531 0
-298 -532 533 0
299 -528 531 0
299 529 -530 0
299 529 531 0
299 -528 -530 0
-299 528 -529 0
-299 530 -531 0
300 -527 528 0
300 526 -529 0
300 526 528 0
300 -527 -529 0
-300 -526 527 0
-300 -528 529 0
301 -524 527 0
301 525 -526 0
301 525 527 0
301 -524 -526 0
-301 524 -525 0
-301 526 -527 0
302 -523 524 0
302 522 -525 0
302 522 524 0
302 -523 -525 0
-302 -522 523 0
-302 -524 525 0
303 -520 523 0
303 521 -522 0
303 521 523 0
303 -520 -522 0
-303 520 -521 0
-303 522 -523 0
304 -519 520 0
304 518 -521 0
304 518 520 0
304 -519 -521 0
-304 -518 519 0
-304 -520 521 0
305 -516 519 0
305 517 -518 0
305 517 519 0
305 -516 -518 0
-305 516 -517 0
-305 518 -519 0
306 -515 516 0
306 514 -517 0
306 514 516 0
306 -515 -517 0
-306 -514 515 0
-306 -516 517 0
307 -512 515 0
307 513 -514 0
307 513 515 0
307 -512 -514 0
-307 512 -513 0
-307 514 -515 0
308 -511 512 0
308 510 -513 0
308 510 512 0
308 -511 -513 0
-308 -510 511 0
-308 -512 513 0
309 -508 511 0
309 509 -510 0
309 509 511 0
309 -508 -510 0
-309 508 -509 0
-309 510 -511 0
310 -507 508 0
310 506 -509 0
310 506 508 0
310 -507 -509 0
-310 -506 507 0
-310 -508 509 0
311 -504 507 0
311 505 -506 0
311 505 507 0
311 -504 -506 0
-311 504 -505 0
-311 506 -507 0
312 -503 504 0
312 502 -505 0
312 502 504 0
312 -503 -505 0
-312 -502 503 0
-312 -504 505 0
313 -500 503 0
313 501 -502 0
313 501 503 0
313 -500 -502 0
-313 500 -501 0
-313 502 -503 0
314 -499 500 0
314 498 -501 0
314 498 500 0
314 -499 -501 0
-314 -498 499 0
-314 -500 501 0
315 -496 499 0
315 497 -498 0
315 497 499 0
315 -496 -498 0
-315 496 -497 0
-315 498 -499 0
316 -495 496 0
316 494 -497 0
316 494 496 0
316 -495 -497 0
-316 -494 495 0
-316 -496 497 0
317 -492 495 0
317 493 -494 0
317 493 495 0
317 -492 -494 0
-317 492 -493 0
-317 494 -495 0
318 -491 492 0
318 490 -493 0
318 490 492 0
318 -491 -493 0
-318 -490 491 0
-318 -492 493 0
319 -488 491 0
319 489 -490 0
319 489 491 0
319 -488 -490 0
-319 488 -489 0
-319 490 -491 0
320 -487 488 0
320 486 -489 0
320 486 488 0
320 -487 -489 0
-320 -486 487 0
-320 -488 489 0
321 -484 487 0
321 485 -486 0
321 485 487 0
321 -484 -486 0
-321 484 -485 0
-321 486 -487 0
322 -483 484 0
322 482 -485 0
322 482 484 0
322 -483 -485 0
-322 -482 483 0
-322 -484 485 0
323 -480 483 0
323 481 -482 0
323 481 483 0
323 -480 -482 0
-323 480 -481 0
-323 482 -483 0
324 -479 480 0
324 478 -481 0
324 478 480 0
324 -479 -481 0
-324 -478 479 0
-324 -480 481 0
325 -476 479 0
325 477 -478 0
325 477 479 0
325 -476 -478 0
-325 476 -477 0
-325 478 -479 0
326 -475 476 0
326 474 -477 0
326 474 476 0
326 -475 -477 0
-326 -474 475 0
-326 -476 477 0
327 -472 475 0
327 473 -474 0
327 473 475 0
327 -472 -474 0
-327 472 -473 0
-327 474 -475 0
328 -471 472 0
328 470 -473 0
328 470 472 0
328 -471 -473 0
-328 -470 471 0
-328 -472 473 0
329 -468 471 0
329 469 -470 0
329 469 471 0
329 -468 -470 0
-329 468 -469 0
-329 470 -471 0
330 -467 468 0
330 466 -469 0
330 466 468 0
330 -467 -469 0
-330 -466 467 0
-330 -468 469 0
331 -464 467 0
331 465 -466 0
331 465 467 0
331 -464 -466 0
-331 464 -465 0
-331 466 -467 0
332 -463 464 0
332 462 -465 0
332 462 464 0
332 -463 -465 0
-332 -462 463 0
-332 -464 465 0
333 -460 463 0
333 461 -462 0
333 461 463 0
333 -460 -462 0
-333 460 -461 0
-333 462 -463 0
334 -459 460 0
334 458 -461 0
334 458 460 0
334 -459 -461 0
-334 -458 459 0
-334 -460 461 0
335 -456 459 0
335 457 -458 0
335 457 459 0
335 -456 -458 0
-335 456 -457 0
-335 458 -459 0
336 -455 456 0
336 454 -457 0
336 454 456 0
336 -455 -457 0
-336 -454 455 0
-336 -456 457 0
337 -452 455 0
337 453 -454 0
337 453 455 0
337 -452 -454 0
-337 452 -453 0
-337 454 -455 0
338 -451 452 0
338 450 -453 0
338 450 452 0
338 -451 -453 0
-338 -450 451 0
-338 -452 453 0
339 -448 451 0
339 449 -450 0
339 449 451 0
339 -448 -450 0
-339 448 -449 0
-339 450 -451 0
340 -447 448 0
340 446 -449 0
340 446 448 0
340 -447 -449 0
-340 -446 447 0
-340 -448 449 0
341 -444 447 0
341 445 -446 0
341 445 447 0
341 -444 -446 0
-341 444 -445 0
-341 446 -447 0
342 -443 444 0
342 442 -445 0
342 442 444 0
342 -443 -445 0
-342 -442 443 0
-342 -444 445 0
343 -440 443 0
343 441 -442 0
343 441 443 0
343 -440 -442 0
-343 440 -441 0
-343 442 -443 0
344 -439 440 0
344 438 -441 0
344 438 440 0
344 -439 -441 0
-344 -438 439 0
-344 -440 441 0
345 436 -437 0
345 436 -692 0
-345 -436 0
-345 437 692 0
346 347 412 0
346 347 391 0
346 347 424 0
-346 -347 0
-346 -391 -412 -424 0
347 -348 -369 -381 -386 0
-347 386 0
-347 348 0
-347 381 0
-347 369 0
348 -349 -354 -359 -364 0
-348 364 0
-348 349 0
-348 359 0
-348 354 0
349 -350 -351 -352 -353 0
-349 353 0
-349 350 0
-349 352 0
-349 351 0
350 -301 -302 -303 -304 0
-350 304 0
-350 301 0
-350 303 0
-350 302 0
351 -297 -298 -299 -300 0
-351 300 0
-351 297 0
-351 299 0
-351 298 0
352 -309 -310 -311 -312 0
-352 312 0
-352 309 0
-352 311 0
-352 310 0
353 -305 -306 -307 -308 0
-353 308 0
-353 305 0
-353 307 0
-353 306 0
354 -355 -356 -357 -358 0
-354 358 0
-354 355 0
-354 357 0
-354 356 0
355 -285 -286 -287 -288 0
-355 288 0
-355 285 0
-355 287 0
-355 286 0
356 -281 -282 -283 -284 0
-356 284 0
-356 281 0
-356 283 0
-356 282 0
357 -293 -294 -295 -296 0
-357 296 0
-357 293 0
-357 295 0
-357 294 0
358 -289 -290 -291 -292 0
-358 292 0
-358 289 0
-358 291 0
-358 290 0
359 -360 -361 -362 -363 0
-359 363 0
-359 360 0
-359 362 0
-359 361 0
360 -333 -334 -335 -336 0
-360 336 0
-360 333 0
-360 335 0
-360 334 0
361 -329 -330 -331 -332 0
-361 332 0
-361 329 0
-361 331 0
-361 330 0
362 -341 -342 -343 -344 0
-362 344 0
-362 341 0
-362 343 0
-362 342 0
363 -337 -338 -339 -340 0
-363 340 0
-363 337 0
-363 339 0
-363 338 0
364 -365 -366 -367 -368 0
-364 368 0
-364 365 0
-364 367 0
-364 366 0
365 -317 -318 -319 -320 0
-365 320 0
-365 317 0
-365 319 0
-365 318 0
366 -313 -314 -315 -316 0
-366 316 0
-366 313 0
-366 315 0
-366 314 0
367 -325 -326 -327 -328 0
-367 328 0
-367 325 0
-367 327 0
-367 326 0
368 -321 -322 -323 -324 0
-368 324 0
-368 321 0
-368 323 0
-368 322 0
369 -370 -375 -379 -380 0
-369 380 0
-369 370 0
-369 379 0
-369 375 0
370 -371 -372 -373 -374 0
-370 374 0
-370 371 0
-370 373 0
-370 372 0
371 -237 -238 -239 -240 0
-371 240 0
-371 237 0
-371 239 0
-371 238 0
372 -233 -234 -235 -236 0
-372 236 0
-372 233 0
-372 235 0
-372 234 0
373 -245 -246 -247 -248 0
-373 248 0
-373 245 0
-373 247 0
-373 246 0
374 -241 -242 -243 -244 0
-374 244 0
-374 241 0
-374 243 0
-374 242 0
375 -219 -220 -376 -377 0
-375 377 0
-375 219 0
-375 376 0
-375 220 0
376 -221 -222 -223 -224 0
-376 224 0
-376 221 0
-376 223 0
-376 222 0
377 690 176 378 0
377 -691 176 378 0
-377 -378 0
-377 -176 0
-377 -690 691 0
378 438 -439 0
-378 -438 0
-378 439 0
379 -229 -230 -231 -232 0
-379 232 0
-379 229 0
-379 231 0
-379 230 0
380 -225 -226 -227 -228 0
-380 228 0
-380 225 0
-380 227 0
-380 226 0
381 -382 -383 -384 -385 0
-381 385 0
-381 382 0
-381 384 0
-381 383 0
382 -269 -270 -271 -272 0
-382 272 0
-382 269 0
-382 271 0
-382 270 0
383 -265 -266 -267 -268 0
-383 268 0
-383 265 0
-383 267 0
-383 266 0
384 -277 -278 -279 -280 0
-384 280 0
-384 277 0
-384 279 0
-384 278 0
385 -273 -274 -275 -276 0
-385 276 0
-385 273 0
-385 275 0
-385 274 0
386 -387 -388 -389 -390 0
-386 390 0
-386 387 0
-386 389 0
-386 388 0
387 -253 -254 -255 -256 0
-387 256 0
-387 253 0
-387 255 0
-387 254 0
388 -249 -250 -251 -252 0
-388 252 0
-388 249 0
-388 251 0
-388 250 0
389 -261 -262 -263 -264 0
-389 264 0
-389 261 0
-389 263 0
-389 262 0
390 -257 -258 -259 -260 0
-390 260 0
-390 257 0
-390 259 0
-390 258 0
391 -392 -397 -402 -407 0
-391 407 0
-391 392 0
-391 402 0
-391 397 0
392 -393 -394 -395 -396 0
-392 396 0
-392 393 0
-392 395 0
-392 394 0
393 -131 -132 -133 -134 0
-393 134 0
-393 131 0
-393 133 0
-393 132 0
394 -127 -128 -129 -130 0
-394 130 0
-394 127 0
-394 129 0
-394 128 0
395 -139 -140 -141 -142 0
-395 142 0
-395 139 0
-395 141 0
-395 140 0
396 -135 -136 -137 -138 0
-396 138 0
-396 135 0
-396 137 0
-396 136 0
397 -398 -399 -400 -401 0
-397 401 0
-397 398 0
-397 400 0
-397 399 0
398 -115 -116 -117 -118 0
-398 118 0
-398 115 0
-398 117 0
-398 116 0
399 -111 -112 -113 -114 0
-399 114 0
-399 111 0
-399 113 0
-399 112 0
400 -123 -124 -125 -126 0
-400 126 0
-400 123 0
-400 125 0
-400 124 0
401 -119 -120 -121 -122 0
-401 122 0
-401 119 0
-401 121 0
-401 120 0
402 -403 -404 -405 -406 0
-402 406 0
-402 403 0
-402 405 0
-402 404 0
403 -163 -164 -165 -166 0
-403 166 0
-403 163 0
-403 165 0
-403 164 0
404 -159 -160 -161 -162 0
-404 162 0
-404 159 0
-404 161 0
-404 160 0
405 -171 -172 -173 -174 0
-405 174 0
-405 171 0
-405 173 0
-405 172 0
406 -167 -168 -169 -170 0
-406 170 0
-406 167 0
-406 169 0
-406 168 0
407 -408 -409 -410 -411 0
-407 411 0
-407 408 0
-407 410 0
-407 409 0
408 -147 -148 -149 -150 0
-408 150 0
-408 147 0
-408 149 0
-408 148 0
409 -143 -144 -145 -146 0
-409 146 0
-409 143 0
-409 145 0
-409 144 0
410 -155 -156 -157 -158 0
-410 158 0
-410 155 0
-410 157 0
-410 156 0
411 -151 -152 -153 -154 0
-411 154 0
-411 151 0
-411 153 0
-411 152 0
412 -413 -418 -422 -423 0
-412 423 0
-412 413 0
-412 422 0
-412 418 0
413 -414 -415 -416 -417 0
-413 417 0
-413 414 0
-413 416 0
-413 415 0
414 -67 -68 -69 -70 0
-414 70 0
-414 67 0
-414 69 0
-414 68 0
415 -63 -64 -65 -66 0
-415 66 0
-415 63 0
-415 65 0
-415 64 0
416 -75 -76 -77 -78 0
-416 78 0
-416 75 0
-416 77 0
-416 76 0
417 -71 -72 -73 -74 0
-417 74 0
-417 71 0
-417 73 0
-417 72 0
418 -49 -50 -419 -420 0
-418 420 0
-418 49 0
-418 419 0
-418 50 0
419 -51 -52 -53 -54 0
-419 54 0
-419 51 0
-419 53 0
-419 52 0
420 690 6 421 0
420 -819 6 421 0
-420 -421 0
-420 -6 0
-420 -690 819 0
421 438 -693 0
-421 -438 0
-421 693 0
422 -59 -60 -61 -62 0
-422 62 0
-422 59 0
-422 61 0
-422 60 0
423 -55 -56 -57 -58 0
-423 58 0
-423 55 0
-423 57 0
-423 56 0
424 -425 -430 -433 -434 0
-424 434 0
-424 425 0
-424 433 0
-424 430 0
425 -426 -427 -428 -429 0
-425 429 0
-425 426 0
-425 428 0
-425 427 0
426 -99 -100 -101 -102 0
-426 102 0
-426 99 0
-426 101 0
-426 100 0
427 -95 -96 -97 -98 0
-427 98 0
-427 95 0
-427 97 0
-427 96 0
428 -107 -108 -109 -110 0
-428 110 0
-428 107 0
-428 109 0
-428 108 0
429 -103 -104 -105 -106 0
-429 106 0
-429 103 0
-429 105 0
-429 104 0
430 -81 -82 -431 -432 0
-430 432 0
-430 81 0
-430 431 0
-430 82 0
431 -83 -84 -85 -86 0
-431 86 0
-431 83 0
-431 85 0
-431 84 0
432 -79 -80 0
-432 79 0
-432 80 0
433 -91 -92 -93 -94 0
-433 94 0
-433 91 0
-433 93 0
-433 92 0
434 -87 -88 -89 -90 0
-434 90 0
-434 87 0
-434 89 0
-434 88 0
435 5 175 345 346 0
-435 -346 0
-435 -345 0
-435 -5 0
-435 -175 0
820 0
2 -4 0
-2 4 0
3 -435 0
-3 435 0
3 0

